 vasp.5.4.4.18Apr17-6-g9f103f2a35 (build Apr 28 2017 10:53:45) complex

 executed on             LinuxIFC date 2019.01.02  16:18:50

 INCAR:
 POTCAR:    PAW_PBE C 08Apr2002
 POTCAR:    PAW_PBE O 08Apr2002
 POTCAR:    PAW_PBE Pd 04Jan2005
 POTCAR:    PAW_PBE C 08Apr2002
   VRHFIN =C: s2p2

   TITEL  = PAW_PBE C 08Apr2002
   POMASS =   12.011; ZVAL   =    4.000    mass and valenz
   ENMAX  =  400.000; ENMIN  =  300.000 eV

 POTCAR:    PAW_PBE O 08Apr2002
   VRHFIN =O: s2p4

   TITEL  = PAW_PBE O 08Apr2002
   POMASS =   16.000; ZVAL   =    6.000    mass and valenz
   ENMAX  =  400.000; ENMIN  =  300.000 eV

 POTCAR:    PAW_PBE Pd 04Jan2005
   VRHFIN =Pd : s1 d9

   TITEL  = PAW_PBE Pd 04Jan2005
   POMASS =  106.420; ZVAL   =   10.000    mass and valenz
   ENMAX  =  250.925; ENMIN  =  188.194 eV

 Optimization of the real space projectors (new method)

 maximal supplied QI-value         = 25.13
 optimisation between [QCUT,QGAM] = [  9.55, 19.10] = [ 25.54,102.17] Ry
 Optimized for a Real-space Cutoff    1.39 Angstroem

   l    n(q)    QCUT    max X(q) W(low)/X(q) W(high)/X(q)  e(spline)
   0      8     9.551   115.676    0.39E-03    0.54E-03    0.29E-06
   0      8     9.551    87.132    0.39E-03    0.54E-03    0.28E-06
   1      7     9.551     4.429    0.35E-03    0.51E-04    0.29E-06
   1      7     9.551     2.733    0.22E-03    0.42E-04    0.31E-06
 Optimization of the real space projectors (new method)

[...]

   l    n(q)    QCUT    max X(q) W(low)/X(q) W(high)/X(q)  e(spline)
   0      8     9.407    20.381    0.17E-03    0.13E-03    0.41E-06
   0      8     9.407    15.268    0.19E-03    0.15E-03    0.42E-06
   1      8     9.407     5.946    0.36E-03    0.29E-03    0.38E-06
   1      8     9.407     5.382    0.31E-03    0.24E-03    0.34E-06
 Optimization of the real space projectors (new method)

 maximal supplied QI-value         = 14.36
 optimisation between [QCUT,QGAM] = [  9.48, 19.10] = [ 25.16,102.17] Ry
 Optimized for a Real-space Cutoff    1.52 Angstroem

   l    n(q)    QCUT    max X(q) W(low)/X(q) W(high)/X(q)  e(spline)
   2      8     9.479    59.108    0.48E-04    0.31E-03    0.96E-07
   2      8     9.479    58.101    0.46E-04    0.32E-03    0.99E-07
   0      9     9.479   102.235    0.56E-04    0.11E-03    0.61E-07
   0      9     9.479    58.388    0.50E-04    0.10E-03    0.58E-07
   1      8     9.479    22.191    0.26E-03    0.25E-04    0.13E-06
   1      8     9.479    15.590    0.22E-03    0.23E-04    0.11E-06
  PAW_PBE C 08Apr2002                   :
  PAW_PBE O 08Apr2002                   :
  PAW_PBE Pd 04Jan2005                  :

 POSCAR:  C  O Pd
  positions in cartesian coordinates
 exchange correlation table for  LEXCH =        8
   RHO(1)=    0.500       N(1)  =     2000
   RHO(2)=  100.500       N(2)  =     4000

 ion  position               nearest neighbor table
   1  0.167  0.167  0.720-   2 1.15   6 2.45   4 2.45   5 2.45
   2  0.167  0.167  0.759-   1 1.15
   3  0.500  0.500  0.656-   9 2.79   7 2.79  10 2.79   5 2.79   4 2.79   5 2.79   6 2.79   4 2.79
                             6 2.79
   4  0.000  0.500  0.656-   1 2.45  10 2.79   9 2.79   8 2.79   6 2.79   3 2.79   5 2.79   6 2.79
                             3 2.79   5 2.79
   5  0.500  0.000  0.656-   1 2.45   7 2.79   8 2.79   9 2.79   6 2.79   3 2.79   3 2.79   4 2.79
                             4 2.79   6 2.79
   6  0.000  0.000  0.656-   1 2.45   8 2.79   7 2.79  10 2.79   5 2.79   4 2.79   3 2.79   4 2.79
                             3 2.79   5 2.79
   7  0.333  0.833  0.578-   5 2.79   3 2.79   6 2.79   8 2.79   9 2.79   9 2.79  10 2.79   8 2.79
                            10 2.79  11 2.79  13 2.79  22 2.79
   8  0.833  0.833  0.578-   6 2.79   5 2.79   4 2.79   7 2.79  10 2.79   9 2.79  10 2.79   7 2.79
                             9 2.79  21 2.79  22 2.79  11 2.79
   9  0.333  0.333  0.578-   3 2.79   4 2.79   5 2.79   7 2.79  10 2.79   7 2.79   8 2.79   8 2.79
                            10 2.79  21 2.79  22 2.79  13 2.79
  10  0.833  0.333  0.578-   4 2.79   3 2.79   6 2.79   8 2.79   9 2.79   7 2.79   8 2.79   7 2.79
                             9 2.79  11 2.79  13 2.79  21 2.79
  11  0.667  0.667  0.500-  21 2.79  22 2.79  13 2.79  21 2.79  13 2.79  22 2.79   7 2.79  10 2.79
                            14 2.79  15 2.79  16 2.79   8 2.79
  12  0.833  0.333  0.344-  15 2.79  14 2.79  17 2.79  19 2.79  20 2.79  18 2.79  19 2.79  18 2.79
                            20 2.79
  13  0.167  0.167  0.500-  21 2.79  22 2.79  11 2.79  22 2.79  11 2.79  21 2.79   7 2.79  10 2.79
                            17 2.79  16 2.79  15 2.79   9 2.79
  14  0.500  0.500  0.422-  20 2.79  18 2.79  12 2.79  15 2.79  16 2.79  16 2.79  17 2.79  15 2.79
                            17 2.79  11 2.79  21 2.79  22 2.79
  15  0.000  0.500  0.422-  12 2.79  19 2.79  20 2.79  14 2.79  17 2.79  16 2.79  17 2.79  14 2.79
                            16 2.79  22 2.79  13 2.79  11 2.79
  16  0.500  0.000  0.422-  18 2.79  19 2.79  20 2.79  17 2.79  14 2.79  14 2.79  15 2.79  15 2.79
                            17 2.79  21 2.79  11 2.79  13 2.79
  17  0.000  0.000  0.422-  19 2.79  18 2.79  12 2.79  15 2.79  16 2.79  14 2.79  15 2.79  14 2.79
                            16 2.79  13 2.79  21 2.79  22 2.79
  18  0.333  0.833  0.344-  16 2.79  14 2.79  17 2.79  19 2.79  20 2.79  12 2.79  20 2.79  12 2.79
                            19 2.79
  19  0.833  0.833  0.344-  17 2.79  16 2.79  15 2.79  12 2.79  18 2.79  12 2.79  20 2.79  18 2.79
                            20 2.79
  20  0.333  0.333  0.344-  14 2.79  15 2.79  16 2.79  12 2.79  18 2.79  18 2.79  19 2.79  12 2.79
                            19 2.79
  21  0.667  0.167  0.500-  11 2.79  13 2.79  11 2.79  22 2.79  13 2.79  22 2.79   9 2.79  16 2.79
                             8 2.79  14 2.79  17 2.79  10 2.79
  22  0.167  0.667  0.500-  11 2.79  13 2.79  13 2.79  21 2.79  11 2.79  21 2.79   9 2.79  15 2.79
                             8 2.79  14 2.79  17 2.79   7 2.79

  LATTYP: Found a hexagonal cell.
 ALAT       =     5.5720014357
 C/A-ratio  =     5.2223676856

  Lattice vectors:

 A1 = (   2.7860007179,  -4.8254947933,   0.0000000000)
 A2 = (  -5.5720014357,   0.0000000000,   0.0000000000)
 A3 = (   0.0000000000,   0.0000000000, -29.0990402424)

Analysis of symmetry for initial positions (statically):
 Subroutine PRICEL returns:
 Original cell was already a primitive cell.

 Routine SETGRP: Setting up the symmetry group for a
 hexagonal supercell.

 Subroutine GETGRP returns: Found  6 space group operations
 (whereof  2 operations were pure point group operations)
 out of a pool of 24 trial point group operations.

The static configuration has the point symmetry C_1h.
 The point group associated with its full space group is C_3v.

Analysis of symmetry for dynamics (positions and initial velocities):
 Subroutine PRICEL returns:
 Original cell was already a primitive cell.

[...]

The dynamic configuration has the point symmetry C_1h.
 The point group associated with its full space group is C_3v.

Analysis of constrained symmetry for selective dynamics:
 Subroutine PRICEL returns:
 Original cell was already a primitive cell.

 Routine SETGRP: Setting up the symmetry group for a
 hexagonal supercell.

 Subroutine GETGRP returns: Found  6 space group operations
 (whereof  2 operations were pure point group operations)
 out of a pool of 24 trial point group operations.

The constrained configuration has the point symmetry C_1h.
 The point group associated with its full space group is C_3v.

 Subroutine INISYM returns: Found  6 space group operations
 (whereof  2 operations are pure point group operations),
 and found     1 'primitive' translations

 KPOINTS: Pd-CO-ads-fcc

Automatic generation of k-mesh.
Space group operators:
 irot       det(A)        alpha          n_x          n_y          n_z        tau_x        tau_y        tau_z
    1     1.000000     0.000000     1.000000     0.000000     0.000000     0.000000     0.000000     0.000000
    2    -1.000000   180.000000     0.500000    -0.866025     0.000000     0.000000     0.000000     0.000000
    3     1.000000   120.000000     0.000000     0.000000     1.000000     0.000000    -0.500000     0.000000
    4     1.000000   120.000000     0.000000     0.000000    -1.000000    -0.500000    -0.000000     0.000000
    5    -1.000000   180.000000     1.000000     0.000000     0.000000    -0.500000     0.000000     0.000000
    6    -1.000000   180.000000    -0.500000    -0.866025     0.000000     0.000000    -0.500000     0.000000

 Subroutine IBZKPT returns following result:

 Found     20 irreducible k-points:

 Following reciprocal coordinates:
            Coordinates               Weight
  0.062500  0.062500  0.000000     48.000000
  0.187500  0.062500  0.000000     96.000000
  0.312500  0.062500  0.000000     96.000000
  0.437500  0.062500  0.000000     96.000000
 -0.437500  0.062500  0.000000     96.000000
 -0.312500  0.062500  0.000000     96.000000
 -0.187500  0.062500  0.000000     96.000000
 -0.062500  0.062500  0.000000     48.000000
  0.187500  0.187500  0.000000     48.000000
  0.312500  0.187500  0.000000     96.000000
  0.437500  0.187500  0.000000     96.000000
 -0.437500  0.187500  0.000000     96.000000
 -0.312500  0.187500  0.000000     96.000000
 -0.187500  0.187500  0.000000     48.000000
  0.312500  0.312500  0.000000     48.000000
  0.437500  0.312500  0.000000     96.000000
 -0.437500  0.312500  0.000000     96.000000
 -0.312500  0.312500  0.000000     48.000000
  0.437500  0.437500  0.000000     48.000000
 -0.437500  0.437500  0.000000     48.000000

 Following cartesian coordinates:
            Coordinates               Weight
  0.011217  0.006476  0.000000     48.000000
  0.033650 -0.006476  0.000000     96.000000
  0.056084 -0.019428  0.000000     96.000000
  0.078518 -0.032380  0.000000     96.000000
 -0.078518  0.058284  0.000000     96.000000
 -0.056084  0.045332  0.000000     96.000000
 -0.033650  0.032380  0.000000     96.000000
 -0.011217  0.019428  0.000000     48.000000
  0.033650  0.019428  0.000000     48.000000
  0.056084  0.006476  0.000000     96.000000
  0.078518 -0.006476  0.000000     96.000000
 -0.078518  0.084188  0.000000     96.000000
 -0.056084  0.071236  0.000000     96.000000
 -0.033650  0.058284  0.000000     48.000000
  0.056084  0.032380  0.000000     48.000000
  0.078518  0.019428  0.000000     96.000000
 -0.078518  0.110092  0.000000     96.000000
 -0.056084  0.097140  0.000000     48.000000
  0.078518  0.045332  0.000000     48.000000
 -0.078518  0.135996  0.000000     48.000000

 SYSTEM =  Pd-CO-ads-fcc
 POSCAR =   C  O Pd

 Startparameter for this run:
   NWRITE =      2    write-flag & timer
   PREC   = normal    normal or accurate (medium, high low for compatibility)
   ISTART =      0    job   : 0-new  1-cont  2-samecut
   ICHARG =      2    charge: 1-file 2-atom 10-const
   ISPIN  =      1    spin polarized calculation?
   LNONCOLLINEAR =      F non collinear calculations
   LSORBIT =      F    spin-orbit coupling
   INIWAV =      1    electr: 0-lowe 1-rand  2-diag
   LASPH  =      F    aspherical Exc in radial PAW
[...]
 d Force =-0.3968873E+00[-0.151E+01, 0.712E+00]  d Energy =-0.7230111E+00 0.326E+00
 d Force = 0.2418430E+03[ 0.231E+03, 0.253E+03]  d Ewald  = 0.2411146E+03 0.728E+00

 Steepest descent step on ions:
 trial-energy change:    0.723011  1 .order    0.396887   -0.712173    1.505947
  (g-gl).g = 0.712E+00      g.g   = 0.712E+00  gl.gl    = 0.000E+00
 g(Force)  = 0.712E+00   g(Stress)= 0.000E+00 ortho     = 0.000E+00
 gamma     =   0.00000
 trial     =   1.00000
 opt step  =   0.18697  (harmonic =   0.32107) maximal distance =0.01090929
 next E    =  -116.000672   (d E  =  -0.06445)

[...]

 d Force = 0.6350234E+00[ 0.457E-01, 0.122E+01]  d Energy = 0.7821695E+00-0.147E+00
 d Force =-0.1946391E+03[-0.202E+03,-0.188E+03]  d Ewald  =-0.1942723E+03-0.367E+00

[...]

 d Force = 0.2875449E+00[ 0.257E+00, 0.318E+00]  d Energy = 0.2938219E+00-0.628E-02
 d Force = 0.2030589E+03[ 0.200E+03, 0.206E+03]  d Ewald  = 0.2030800E+03-0.211E-01

 Conjugate gradient step on ions:
 trial-energy change:   -0.293822  1 .order   -0.287545   -0.317996   -0.257094
  (g-gl).g = 0.473E+00      g.g   = 0.417E+00  gl.gl    = 0.712E+00
 g(Force)  = 0.417E+00   g(Stress)= 0.000E+00 ortho     =-0.562E-01
 gamma     =   0.66450
 trial     =   0.83739
 opt step  =   2.18857  (harmonic =   4.37237) maximal distance =0.14577561
 next E    =  -116.522993   (d E  =  -0.52761)

[...]

 d Force =-0.5110848E+00[-0.145E+01, 0.432E+00]  d Energy =-0.3729365E+00-0.138E+00
 d Force = 0.3967706E+02[ 0.335E+02, 0.459E+02]  d Ewald  = 0.3989075E+02-0.214E+00

 Conjugate gradient step on ions:
 trial-energy change:    0.372936  1 .order    0.511085   -0.431847    1.454017
  (g-gl).g = 0.362E+00      g.g   = 0.739E+00  gl.gl    = 0.417E+00
 g(Force)  = 0.739E+00   g(Stress)= 0.000E+00 ortho     = 0.362E-01
 gamma     =   0.86899
 trial     =   0.56068
 opt step  =   0.18249  (harmonic =   0.12839) maximal distance =0.01097418
 next E    =  -116.624971   (d E  =  -0.07504)

[...]

 d Force = 0.5788679E-01[ 0.494E-01, 0.664E-01]  d Energy = 0.5808025E-01-0.193E-03
 d Force = 0.1362438E+02[ 0.133E+02, 0.140E+02]  d Ewald  = 0.1362332E+02 0.106E-02

[...]

 d Force = 0.6935511E-01[-0.513E-02, 0.144E+00]  d Energy = 0.7013236E-01-0.777E-03
 d Force = 0.3600095E+02[ 0.333E+02, 0.387E+02]  d Ewald  = 0.3597741E+02 0.235E-01

[...]

 d Force =-0.3011007E-01[-0.999E-01, 0.397E-01]  d Energy =-0.3446315E-01 0.435E-02
 d Force =-0.4736367E+02[-0.478E+02,-0.469E+02]  d Ewald  =-0.4737079E+02 0.712E-02

[...]

 d Force = 0.1973995E-01[-0.459E-04, 0.395E-01]  d Energy = 0.1938046E-01 0.359E-03
 d Force =-0.2640430E+03[-0.265E+03,-0.263E+03]  d Ewald  =-0.2640436E+03 0.581E-03

[...]

 d Force = 0.2005336E-04[-0.551E-04, 0.952E-04]  d Energy =-0.1171266E-03 0.137E-03
 d Force =-0.8358953E+01[-0.836E+01,-0.836E+01]  d Ewald  =-0.8358953E+01-0.226E-08

[...]

 Conjugate gradient step on ions:
 trial-energy change:   -0.000908  1 .order   -0.000900   -0.000920   -0.000879
  (g-gl).g = 0.672E-02      g.g   = 0.533E-02  gl.gl    = 0.285E-01
 g(Force)  = 0.533E-02   g(Stress)= 0.000E+00 ortho     =-0.202E-02
 gamma     =   0.23601
 trial     =   0.18963
 opt step  =   0.75852  (harmonic =   4.22479) maximal distance =0.00591811
 next E    =  -116.812685   (d E  =  -0.01025)

[...]

 d Force =-0.1300910E-01[-0.367E-01, 0.107E-01]  d Energy =-0.1262523E-01-0.384E-03
 d Force =-0.4554820E+02[-0.457E+02,-0.454E+02]  d Ewald  =-0.4554710E+02-0.110E-02

 Steepest descent step on ions:
 trial-energy change:    0.012625  1 .order    0.013009   -0.010680    0.036698
  (g-gl).g = 0.120E-01      g.g   = 0.108E-01  gl.gl    = 0.533E-02
 g(Force)  = 0.108E-01   g(Stress)= 0.000E+00 ortho     =-0.158E-02
 gamma     =   0.00000
 trial     =   0.98608
 opt step  =   0.22228  (harmonic =   0.22228) maximal distance =0.00246181
 next E    =  -116.810609   (d E  =  -0.00120)

[...]

 d Force = 0.1115828E-03[ 0.238E-04, 0.199E-03]  d Energy = 0.5169634E-04 0.599E-04
 d Force =-0.8456084E+01[-0.846E+01,-0.845E+01]  d Ewald  =-0.8456084E+01 0.917E-08

[...]

 d Force = 0.4326061E-03[-0.102E-02, 0.189E-02]  d Energy = 0.5361014E-03-0.103E-03
 d Force =-0.5475032E+02[-0.548E+02,-0.547E+02]  d Ewald  =-0.5475030E+02-0.197E-04

 Conjugate gradient step on ions:
 trial-energy change:   -0.000536  1 .order   -0.000433   -0.001885    0.001020
  (g-gl).g = 0.322E-02      g.g   = 0.217E-02  gl.gl    = 0.684E-02
 g(Force)  = 0.217E-02   g(Stress)= 0.000E+00 ortho     = 0.144E-03
 gamma     =   0.47054
 trial     =   0.84418
 opt step  =   0.54778  (harmonic =   0.54778) maximal distance =0.00225755
 next E    =  -116.814772   (d E  =  -0.00061)

 real space projection operators:
  max/ min on nodes  :        841.42        617.12

[...]

 eigenvalue-minimisations  :  5976
 total energy-change (2. order) :-0.5304420E-03  (-0.3057764E-03)
 number of electron     209.9999767 magnetization
 augmentation part       84.7739462 magnetization

[...]

 Broyden mixing:
  rms(total) = 0.76482E-02    rms(broyden)= 0.76442E-02
  rms(prec ) = 0.11327E-01
  weight for this iteration     100.00

 eigenvalues of (default mixing * dielectric matrix)
  average eigenvalue GAMMA=   0.2411
  0.4448  0.2282  0.0502

[...]

--------------------------------------- Iteration     27(   5)  ---------------------------------------

 eigenvalue-minimisations  :  3448
 total energy-change (2. order) : 0.3449467E-04  (-0.2048342E-04)
 number of electron     209.9999767 magnetization
 augmentation part       84.7745402 magnetization

 Free energy of the ion-electron system (eV)
  alpha Z        PSCENC =       361.59275062
  Ewald energy   TEWEN  =    107448.10567847
  -Hartree energ DENC   =   -124852.29210113
  -exchange      EXHF   =         0.00000000
  -V(xc)+E(xc)   XCENC  =      -551.61865633
  PAW double counting   =     19812.17117381   -18615.82706550
  entropy T*S    EENTRO =        -0.39992670
  eigenvalues    EBANDS =      -492.14049840
  atomic energy  EATOM  =     16773.59380047
  Solvation  Ediel_sol  =         0.00000000
  free energy    TOTEN  =      -116.81484470 eV

  energy without entropy =     -116.41491800  energy(sigma->0) =     -116.68153580

 average (electrostatic) potential at core
  the test charge radii are     0.6991  0.7215  1.1199
  (the norm of the test charge is              1.0000)
       1 -56.4382       2 -76.7351       3 -79.3969       4 -79.8405       5 -79.8405
       6 -79.8405       7 -79.7963       8 -79.7191       9 -79.7963      10 -79.7963
      11 -79.8641      12 -79.5004      13 -79.8903      14 -79.8603      15 -79.8534
      16 -79.8534      17 -79.8534      18 -79.5004      19 -79.5005      20 -79.5004
      21 -79.8641      22 -79.8641

 E-fermi :   0.3353     XC(G=0):  -5.9245     alpha+bet : -6.5184

[...]

 k-point    20 :      -0.4375    0.4375    0.0000
  band No.  band energies     occupation
      1     -22.2088      2.00000
      2      -9.3828      2.00000
      3      -6.1360      2.00000
      4      -5.9275      2.00000
      5      -5.8269      2.00000
      6      -4.5992      2.00000
      7      -4.5760      2.00000
      8      -4.1218      2.00000
      9      -4.0913      2.00000
     10      -3.8346      2.00000
     11      -3.8301      2.00000
     12      -3.8215      2.00000
     13      -3.8060      2.00000
     14      -3.7701      2.00000
     15      -3.7362      2.00000
     16      -3.5936      2.00000
     17      -3.5539      2.00000
     18      -3.5395      2.00000
     19      -3.4911      2.00000
     20      -3.4753      2.00000
     21      -3.4636      2.00000
     22      -3.4381      2.00000
     23      -3.3267      2.00000
     24      -3.2960      2.00000
     25      -3.2175      2.00000
     26      -3.2075      2.00000
     27      -3.1973      2.00000
     28      -3.1929      2.00000
     29      -3.1207      2.00000
     30      -3.0732      2.00000
     31      -3.0621      2.00000
     32      -3.0359      2.00000
     33      -3.0132      2.00000
     34      -2.9924      2.00000
     35      -2.8990      2.00000
     36      -2.8241      2.00000
     37      -2.8141      2.00000
     38      -2.7211      2.00000
     39      -2.6751      2.00000
     40      -2.6629      2.00000
     41      -2.6561      2.00000
     42      -2.6011      2.00000
     43      -2.5816      2.00000
     44      -2.4291      2.00000
     45      -2.3881      2.00000
     46      -2.3444      2.00000
     47      -2.2654      2.00000
     48      -2.2256      2.00000
     49      -2.2063      2.00000
     50      -2.1866      2.00000
     51      -2.1501      2.00000
     52      -2.0953      2.00000
     53      -2.0471      2.00000
     54      -2.0122      2.00000
     55      -2.0090      2.00000
     56      -1.9780      2.00000
     57      -1.9117      2.00000
     58      -1.8774      2.00000
     59      -1.8635      2.00000
     60      -1.8450      2.00000
[...]
    130       7.4543     -0.00000
    131       7.7716     -0.00000
    132       7.8545     -0.00000
    133       7.9606     -0.00000
    134       7.9816     -0.00000
    135       8.0205     -0.00000
    136       8.1462     -0.00000
    137       8.1756     -0.00000
    138       8.6451     -0.00000
    139       8.9756     -0.00000
    140       8.9955     -0.00000
    141       9.0419     -0.00000
    142       9.0862     -0.00000
    143       9.1458     -0.00000
    144       9.2324     -0.00000

 soft charge-density along one line, spin component           1
         0         1         2         3         4         5         6         7         8         9
 total charge-density along one line

------------------------ aborting loop because EDIFF is reached ----------------------------------------

  FORCE on cell =-STRESS in cart. coord.  units (eV):
  Direction    XX          YY          ZZ          XY          YZ          ZX
  Alpha Z   361.59275   361.59275   361.59275
  Ewald  118569.71332118569.71332************     0.00000     0.00000     0.00000
  Hartree122961.30270122961.30270************     0.00000    -0.00000    -0.00000
  E(xc)   -1090.41030 -1090.41042 -1093.81993     0.00010    -0.00000    -0.00000
  Local  ************************247191.56566     0.00165    -0.00015    -0.00025
  n-local   -84.29908  -139.74741  -133.46512   -15.50702    -2.46643     1.29600
  augment  1483.14135  1483.14238  1504.94064    -0.00089     0.00005     0.00008
  Kinetic  2920.42384  2898.81619  2928.25560    -5.80832    -4.19623     2.56651
  Fock        0.00000     0.00000     0.00000     0.00000     0.00000     0.00000
  Total     -10.94403   -10.94403    -5.79004     0.00000     0.00000     0.00000
  in kB     -22.41073   -22.41073   -11.85660     0.00000     0.00000     0.00000

 VOLUME and BASIS-vectors are now :
  energy-cutoff  :      350.00
  volume of cell :      782.41
      direct lattice vectors                 reciprocal lattice vectors
     5.572001436  0.000000000  0.000000000     0.179468726 -0.103616317  0.000000000
     2.786000718  4.825494793  0.000000000     0.000000000  0.207232635  0.000000000
     0.000000000  0.000000000 29.099040242     0.000000000  0.000000000  0.034365395

  length of vectors
     5.572001436  5.572001436 29.099040242     0.207232635  0.207232635  0.034365395

 FORCES acting on ions
    electron-ion (+dipol)            ewald-force                    non-local-force                 convergence-correction
   -.371E-03 -.214E-03 -.130E+04   0.589E-11 0.345E-11 0.129E+04   -.249E-17 -.108E-18 0.106E+02   0.696E-07 0.402E-07 0.159E-01
   0.249E-03 0.144E-03 -.227E+04   0.109E-12 0.400E-13 0.233E+04   -.142E-17 0.108E-18 -.571E+02   0.535E-07 0.309E-07 -.611E-02
   0.125E-05 0.721E-06 -.300E+04   0.115E-10 0.679E-11 0.299E+04   0.542E-19 -.108E-18 0.277E+01   0.104E-06 0.603E-07 -.946E-01
   0.387E-05 -.102E+03 -.296E+04   -.588E-12 0.101E+03 0.296E+04   -.139E-16 0.566E+00 0.516E+00   -.594E-06 0.188E-01 -.113E+00
   -.881E+02 0.508E+02 -.296E+04   0.876E+02 -.506E+02 0.296E+04   0.490E+00 -.283E+00 0.516E+00   0.163E-01 -.942E-02 -.113E+00
   0.881E+02 0.508E+02 -.296E+04   -.876E+02 -.506E+02 0.296E+04   -.490E+00 -.283E+00 0.516E+00   -.163E-01 -.942E-02 -.113E+00
   -.825E-07 0.120E+01 -.139E+04   0.266E-11 -.133E+01 0.139E+04   -.694E-17 0.106E+00 0.374E+00   -.247E-06 0.656E-02 -.256E+00
   -.637E-06 -.368E-06 -.142E+04   -.825E-11 -.151E-10 0.142E+04   0.401E-17 -.596E-18 -.407E+00   -.485E-07 -.280E-07 -.262E+00
   -.104E+01 -.600E+00 -.139E+04   0.115E+01 0.663E+00 0.139E+04   -.922E-01 -.532E-01 0.374E+00   -.568E-02 -.328E-02 -.256E+00
   0.104E+01 -.600E+00 -.139E+04   -.115E+01 0.663E+00 0.139E+04   0.922E-01 -.532E-01 0.374E+00   0.569E-02 -.328E-02 -.256E+00
   -.430E+01 -.248E+01 0.177E+03   0.425E+01 0.246E+01 -.177E+03   0.611E-01 0.353E-01 0.774E-01   0.284E-01 0.164E-01 -.145E+00
   -.428E-01 0.247E-01 0.334E+04   0.305E-01 -.176E-01 -.333E+04   0.324E-02 -.187E-02 -.254E+01   0.866E-03 -.500E-03 0.374E-01
   -.191E-04 -.110E-04 0.178E+03   0.364E-10 0.209E-10 -.177E+03   0.542E-18 0.434E-18 -.189E+00   0.111E-07 0.644E-08 -.140E+00
   -.760E-06 -.439E-06 0.176E+04   -.846E-12 -.512E-12 -.176E+04   0.423E-17 -.580E-17 0.184E-01   0.175E-08 0.101E-08 -.254E-01
   -.108E-06 0.100E+00 0.176E+04   0.370E-11 -.749E-01 -.176E+04   0.000E+00 -.503E-01 -.337E-02   0.118E-07 0.478E-03 -.218E-01
   0.868E-01 -.501E-01 0.176E+04   -.649E-01 0.375E-01 -.176E+04   -.436E-01 0.252E-01 -.337E-02   0.414E-03 -.239E-03 -.218E-01
   -.868E-01 -.501E-01 0.176E+04   0.649E-01 0.375E-01 -.176E+04   0.436E-01 0.252E-01 -.337E-02   -.414E-03 -.239E-03 -.218E-01
   0.282E-06 -.494E-01 0.334E+04   -.100E-11 0.353E-01 -.333E+04   -.137E-17 0.374E-02 -.254E+01   0.233E-07 0.100E-02 0.374E-01
   0.259E-06 0.150E-06 0.334E+04   -.110E-11 -.654E-12 -.333E+04   0.108E-17 0.434E-18 -.258E+01   -.234E-08 -.135E-08 0.383E-01
   0.428E-01 0.247E-01 0.334E+04   -.305E-01 -.176E-01 -.333E+04   -.324E-02 -.187E-02 -.254E+01   -.866E-03 -.500E-03 0.374E-01
   -.129E-04 0.497E+01 0.177E+03   -.223E-10 -.491E+01 -.177E+03   -.867E-18 -.705E-01 0.774E-01   -.713E-06 -.328E-01 -.145E+00
   0.430E+01 -.248E+01 0.177E+03   -.425E+01 0.246E+01 -.177E+03   -.611E-01 0.353E-01 0.774E-01   -.284E-01 0.164E-01 -.145E+00
   -.132E-03 -.764E-04 0.535E+02   0.167E-12 0.355E-13 -.625E-12   -.694E-17 -.139E-16 -.515E+02   0.725E-07 0.419E-07 -.197E+01

 POSITION                                       TOTAL-FORCE (eV/Angst)
      1.39300      0.80425     20.49370        -0.000000      0.000000     -0.182845
      1.39300      0.80425     21.68184        -0.000000      0.000000      0.221730
      4.17900      2.41275     19.12032        -0.000000      0.000000     -0.087975
      1.39300      2.41625     19.19963        -0.000000      0.037956     -0.048179
      2.78903     -0.00175     19.19963         0.032871     -0.018978     -0.048179
     -0.00303     -0.00175     19.19963        -0.032871     -0.018978     -0.048179
      4.17900      4.02351     16.84425        -0.000000     -0.012467     -0.031778
      6.96500      4.02125     16.88400        -0.000000      0.000000     -0.030987
      2.78404      1.60737     16.84425         0.010796      0.006233     -0.031778
      5.57396      1.60737     16.84425        -0.010796      0.006233     -0.031778
      5.56990      3.21578     14.55975         0.041032      0.023690     -0.033101
      5.57200      1.60850     10.00000        -0.008154      0.004708     -0.010225
      1.39300      0.80425     14.56601        -0.000000      0.000000     -0.044799
      4.17900      2.41275     12.27476        -0.000000      0.000000      0.049639
      1.39300      2.41275     12.27476         0.000000     -0.024499      0.151637
      2.78600      0.00000     12.27476        -0.021217      0.012250      0.151637
      0.00000      0.00000     12.27476         0.021217      0.012250      0.151637
      4.17900      4.02125     10.00000        -0.000000     -0.009415     -0.010225
      6.96500      4.02125     10.00000        -0.000000      0.000000     -0.009824
      2.78600      1.60850     10.00000         0.008154      0.004708     -0.010225
      4.17900      0.80668     14.55975        -0.000000     -0.047380     -0.033101
      2.78810      3.21578     14.55975        -0.041032      0.023690     -0.033101
    total drift:                               -0.000132     -0.000076     -0.011662

  FREE ENERGIE OF THE ION-ELECTRON SYSTEM (eV)
  free  energy   TOTEN  =      -116.81484470 eV

  energy  without entropy=     -116.41491800  energy(sigma->0) =     -116.68153580

 d Force = 0.1769404E-03[-0.430E-05, 0.358E-03]  d Energy = 0.1487425E-03 0.282E-04
 d Force = 0.1922842E+02[ 0.192E+02, 0.192E+02]  d Ewald  = 0.1922842E+02 0.856E-06

 reached required accuracy - stopping structural energy minimisation